c 
c G(k,n,p) graph
c graph gen seed     : 324
c number of vertices : 20
c max number of edges: 400
c number of classes  : 2
c edge density       : 0.600000
c edge probability   : 1.200000
c data structure     : dense
c
c           Graph Stats
c number of vertices  : 20
c nonisolated vertices: 20
c number of edges     : 100
c edge density        : 0.526316
c max degree          : 10
c avg degree          : 10.00
c min degree          : 10
p col 20 100
e 1 4
e 1 5
e 1 8
e 1 9
e 1 10
e 1 12
e 1 13
e 1 14
e 1 16
e 1 17
e 2 4
e 2 5
e 2 8
e 2 9
e 2 10
e 2 12
e 2 13
e 2 14
e 2 16
e 2 17
e 3 4
e 3 5
e 3 8
e 3 9
e 3 10
e 3 12
e 3 13
e 3 14
e 3 16
e 3 17
e 4 6
e 4 7
e 4 11
e 4 15
e 4 18
e 4 19
e 4 20
e 5 6
e 5 7
e 5 11
e 5 15
e 5 18
e 5 19
e 5 20
e 6 8
e 6 9
e 6 10
e 6 12
e 6 13
e 6 14
e 6 16
e 6 17
e 7 8
e 7 9
e 7 10
e 7 12
e 7 13
e 7 14
e 7 16
e 7 17
e 8 11
e 8 15
e 8 18
e 8 19
e 8 20
e 9 11
e 9 15
e 9 18
e 9 19
e 9 20
e 10 11
e 10 15
e 10 18
e 10 19
e 10 20
e 11 12
e 11 13
e 11 14
e 11 16
e 11 17
e 12 15
e 12 18
e 12 19
e 12 20
e 13 15
e 13 18
e 13 19
e 13 20
e 14 15
e 14 18
e 14 19
e 14 20
e 15 16
e 15 17
e 16 18
e 16 19
e 16 20
e 17 18
e 17 19
e 17 20
